#This is Python generated data file for Pyomo model DCLF.py
#_author_:W. Bukhsh
#Time stamp: 2019-06-26 15:48:57.125337
set B:=
1
2
3
4
5
6
7
8
9
10
11
12
13
14
15
16
17
18
19
20
21
22
23
24
;
set G:=
G1
G2
G3
G4
G5
G6
G7
G8
G9
G10
G11
G12
G13
G14
G15
G16
G17
G18
G19
G20
G21
G22
G23
G24
G25
G26
G27
G28
G29
G30
G31
G32
G33
;
set D:=
D1
D2
D3
D4
D5
D6
D7
D8
D9
D10
D13
D14
D15
D16
D18
D19
D20
;
set EV:=
Zoe101
Leaf203
i3423
Niro560
Model3956
;
set EVbs:=
3 Zoe101
4 Leaf203
6 i3423
8 Niro560
10 Model3956
;
set FlexTimes:= 
Zoe101 2
Zoe101 3
Zoe101 4
Zoe101 5
Leaf203 1
Leaf203 2
Leaf203 3
Leaf203 4
Leaf203 5
Leaf203 6
Leaf203 7
Leaf203 8
Leaf203 9
Leaf203 10
i3423 2
i3423 3
i3423 4
i3423 5
i3423 6
i3423 7
i3423 8
i3423 9
i3423 10
i3423 11
i3423 12
i3423 13
i3423 14
i3423 15
i3423 16
i3423 17
i3423 18
i3423 19
i3423 20
Niro560 4
Niro560 5
Niro560 6
Niro560 7
Niro560 8
Niro560 9
Model3956 6
Model3956 7
Model3956 8
Model3956 9
Model3956 10
Model3956 11
Model3956 12
;
set FlexTimesRed:= 
Zoe101 3
Zoe101 4
Zoe101 5
Leaf203 2
Leaf203 3
Leaf203 4
Leaf203 5
Leaf203 6
Leaf203 7
Leaf203 8
Leaf203 9
Leaf203 10
i3423 3
i3423 4
i3423 5
i3423 6
i3423 7
i3423 8
i3423 9
i3423 10
i3423 11
i3423 12
i3423 13
i3423 14
i3423 15
i3423 16
i3423 17
i3423 18
i3423 19
i3423 20
Niro560 5
Niro560 6
Niro560 7
Niro560 8
Niro560 9
Model3956 7
Model3956 8
Model3956 9
Model3956 10
Model3956 11
Model3956 12
;
set EVFlexWindow:= 
Zoe101 1 1
Zoe101 1 2
Leaf203 1 1
Leaf203 1 2
i3423 1 1
i3423 1 2
Niro560 1 1
Niro560 1 2
Model3956 1 1
Model3956 1 2
;
set EVBoundaryStart:= 
Zoe101 2
Leaf203 1
i3423 2
Niro560 4
Model3956 6
;
set EVBoundaryEnd:= 
Zoe101 5
Leaf203 10
i3423 20
Niro560 9
Model3956 12
;
param SoCStart:= 
Zoe101 2 0.02
Leaf203 1 0.02
i3423 2 0.02
Niro560 4 0.02
Model3956 6 0.02
;
param SoCEnd:= 
Zoe101 5 0.2
Leaf203 10 0.2
i3423 20 0.2
Niro560 9 0.2
Model3956 12 0.2
;
set T:= 
1
2
3
4
5
6
7
8
9
10
11
12
13
14
15
16
17
18
19
20
21
22
23
24
;
set TRed:= 
2
3
4
5
6
7
8
9
10
11
12
13
14
15
16
17
18
19
20
21
22
23
;
set LE:=
 1 
 2;
set Window:=
 1 
 2
 3
 4
 5
 6;
set L:=
L1-12
L2-13
L3-15
L4-24
L5-26
L6-39
L7-49
L8-510
L9-610
L10-78
L11-89
L12-810
L13-1113
L14-1114
L15-1213
L16-1223
L17-1323
L18-1416
L19-1516
L20-1521
L21-1521
L22-1524
L23-1617
L24-1619
L25-1718
L26-1722
L27-1821
L28-1821
L29-1920
L30-1920
L31-2023
L32-2023
L33-2122
;
set TRANSF:= 
T1-324
T2-911
T3-912
T4-1011
T5-1012
;
set Gbs:=
1 G1
1 G2
1 G3
1 G4
2 G5
2 G6
2 G7
2 G8
7 G9
7 G10
7 G11
13 G12
13 G13
13 G14
14 G15
15 G16
15 G17
15 G18
15 G19
15 G20
15 G21
16 G22
18 G23
21 G24
22 G25
22 G26
22 G27
22 G28
22 G29
22 G30
23 G31
23 G32
23 G33
;
set Dbs:=
1 D1
2 D2
3 D3
4 D4
5 D5
6 D6
7 D7
8 D8
9 D9
10 D10
13 D13
14 D14
15 D15
16 D16
18 D18
19 D19
20 D20
;
set b0:=
13
;
param A:=
L1-12 1 1
L2-13 1 1
L3-15 1 1
L4-24 1 2
L5-26 1 2
L6-39 1 3
L7-49 1 4
L8-510 1 5
L9-610 1 6
L10-78 1 7
L11-89 1 8
L12-810 1 8
L13-1113 1 11
L14-1114 1 11
L15-1213 1 12
L16-1223 1 12
L17-1323 1 13
L18-1416 1 14
L19-1516 1 15
L20-1521 1 15
L21-1521 1 15
L22-1524 1 15
L23-1617 1 16
L24-1619 1 16
L25-1718 1 17
L26-1722 1 17
L27-1821 1 18
L28-1821 1 18
L29-1920 1 19
L30-1920 1 19
L31-2023 1 20
L32-2023 1 20
L33-2122 1 21
L1-12 2 2
L2-13 2 3
L3-15 2 5
L4-24 2 4
L5-26 2 6
L6-39 2 9
L7-49 2 9
L8-510 2 10
L9-610 2 10
L10-78 2 8
L11-89 2 9
L12-810 2 10
L13-1113 2 13
L14-1114 2 14
L15-1213 2 13
L16-1223 2 23
L17-1323 2 23
L18-1416 2 16
L19-1516 2 16
L20-1521 2 21
L21-1521 2 21
L22-1524 2 24
L23-1617 2 17
L24-1619 2 19
L25-1718 2 18
L26-1722 2 22
L27-1821 2 21
L28-1821 2 21
L29-1920 2 20
L30-1920 2 20
L31-2023 2 23
L32-2023 2 23
L33-2122 2 22
;
param AT:= 
T1-324 1 3
T2-911 1 9
T3-912 1 9
T4-1011 1 10
T5-1012 1 10
T1-324 2 24
T2-911 2 11
T3-912 2 12
T4-1011 2 11
T5-1012 2 12
;
param BL:=
L1-12 -71.9424460432
L2-13 -4.73484848485
L3-15 -11.8343195266
L4-24 -7.89265982636
L5-26 -5.20833333333
L6-39 -8.40336134454
L7-49 -9.64320154291
L8-510 -11.3250283126
L9-610 -16.5289256198
L10-78 -16.2866449511
L11-89 -6.05693519079
L12-810 -6.05693519079
L13-1113 -21.0084033613
L14-1114 -23.9234449761
L15-1213 -21.0084033613
L16-1223 -10.3519668737
L17-1323 -11.5606936416
L18-1416 -25.706940874
L19-1516 -57.8034682081
L20-1521 -20.4081632653
L21-1521 -20.4081632653
L22-1524 -19.267822736
L23-1617 -38.61003861
L24-1619 -43.29004329
L25-1718 -69.4444444444
L26-1722 -9.49667616334
L27-1821 -38.61003861
L28-1821 -38.61003861
L29-1920 -25.2525252525
L30-1920 -25.2525252525
L31-2023 -46.2962962963
L32-2023 -46.2962962963
L33-2122 -14.7492625369
;
param BLT:=
T1-324 -11.9189511323
T2-911 -11.9189511323
T3-912 -11.9189511323
T4-1011 -11.9189511323
T5-1012 -11.9189511323
;
param PGmin:=
G1 0.0
G2 0.0
G3 0.0
G4 0.0
G5 0.0
G6 0.0
G7 0.0
G8 0.0
G9 0.0
G10 0.0
G11 0.0
G12 0.0
G13 0.0
G14 0.0
G15 0.0
G16 0.0
G17 0.0
G18 0.0
G19 0.0
G20 0.0
G21 0.0
G22 0.0
G23 0.0
G24 0.0
G25 0.0
G26 0.0
G27 0.0
G28 0.0
G29 0.0
G30 0.0
G31 0.0
G32 0.0
G33 0.0
;
param PGmax:=
G1 0.2
G2 0.2
G3 0.76
G4 0.76
G5 0.2
G6 0.2
G7 0.76
G8 0.76
G9 1.0
G10 1.0
G11 1.0
G12 1.97
G13 1.97
G14 1.97
G15 0.0
G16 0.12
G17 0.12
G18 0.12
G19 0.12
G20 0.12
G21 1.55
G22 1.55
G23 4.0
G24 4.0
G25 0.5
G26 0.5
G27 0.5
G28 0.5
G29 0.5
G30 0.5
G31 1.55
G32 1.55
G33 3.5
;
param SLmax:=
L1-12 1.75
L2-13 1.75
L3-15 1.75
L4-24 1.75
L5-26 1.75
L6-39 1.75
L7-49 1.75
L8-510 1.75
L9-610 1.75
L10-78 1.75
L11-89 1.75
L12-810 1.75
L13-1113 5.0
L14-1114 5.0
L15-1213 5.0
L16-1223 5.0
L17-1323 5.0
L18-1416 5.0
L19-1516 5.0
L20-1521 5.0
L21-1521 5.0
L22-1524 5.0
L23-1617 5.0
L24-1619 5.0
L25-1718 5.0
L26-1722 5.0
L27-1821 5.0
L28-1821 5.0
L29-1920 5.0
L30-1920 5.0
L31-2023 5.0
L32-2023 5.0
L33-2122 5.0
;
param SLmaxT:=
T1-324 4.0
T2-911 4.0
T3-912 4.0
T4-1011 4.0
T5-1012 4.0
;
param c2:=
G1 0.0
G2 0.0
G3 0.014142
G4 0.014142
G5 0.0
G6 0.0
G7 0.014142
G8 0.014142
G9 0.052672
G10 0.052672
G11 0.052672
G12 0.00717
G13 0.00717
G14 0.00717
G15 0.0
G16 0.328412
G17 0.328412
G18 0.328412
G19 0.328412
G20 0.328412
G21 0.008342
G22 0.008342
G23 0.000213
G24 0.000213
G25 0.0
G26 0.0
G27 0.0
G28 0.0
G29 0.0
G30 0.0
G31 0.008342
G32 0.008342
G33 0.004895
;
param c1:=
G1 130.0
G2 130.0
G3 16.0811
G4 16.0811
G5 130.0
G6 130.0
G7 16.0811
G8 16.0811
G9 43.6615
G10 43.6615
G11 43.6615
G12 48.5804
G13 48.5804
G14 48.5804
G15 0.0
G16 56.564
G17 56.564
G18 56.564
G19 56.564
G20 56.564
G21 12.3883
G22 12.3883
G23 4.4231
G24 4.4231
G25 0.001
G26 0.001
G27 0.001
G28 0.001
G29 0.001
G30 0.001
G31 12.3883
G32 12.3883
G33 11.8495
;
param c0:=
G1 400.6849
G2 400.6849
G3 212.3076
G4 212.3076
G5 400.6849
G6 400.6849
G7 212.3076
G8 212.3076
G9 781.521
G10 781.521
G11 781.521
G12 832.7575
G13 832.7575
G14 832.7575
G15 0.0
G16 86.3852
G17 86.3852
G18 86.3852
G19 86.3852
G20 86.3852
G21 382.2391
G22 382.2391
G23 395.3749
G24 395.3749
G25 0.001
G26 0.001
G27 0.001
G28 0.001
G29 0.001
G30 0.001
G31 382.2391
G32 382.2391
G33 665.1094
;
param PD:=
D1 1 0.972
D1 2 0.9828
D1 3 0.9936
D1 4 1.0044
D1 5 1.0152
D1 6 1.026
D1 7 1.0368
D1 8 1.0476
D1 9 1.0584
D1 10 1.0692
D1 11 1.08
D1 12 1.0908
D1 13 1.1016
D1 14 1.1124
D1 15 1.1232
D1 16 1.134
D1 17 1.1448
D1 18 1.1556
D1 19 1.1664
D1 20 1.1772
D1 21 1.188
D1 22 1.1988
D1 23 1.2096
D1 24 1.2204
D2 1 0.873
D2 2 0.8827
D2 3 0.8924
D2 4 0.9021
D2 5 0.9118
D2 6 0.9215
D2 7 0.9312
D2 8 0.9409
D2 9 0.9506
D2 10 0.9603
D2 11 0.97
D2 12 0.9797
D2 13 0.9894
D2 14 0.9991
D2 15 1.0088
D2 16 1.0185
D2 17 1.0282
D2 18 1.0379
D2 19 1.0476
D2 20 1.0573
D2 21 1.067
D2 22 1.0767
D2 23 1.0864
D2 24 1.0961
D3 1 1.62
D3 2 1.638
D3 3 1.656
D3 4 1.674
D3 5 1.692
D3 6 1.71
D3 7 1.728
D3 8 1.746
D3 9 1.764
D3 10 1.782
D3 11 1.8
D3 12 1.818
D3 13 1.836
D3 14 1.854
D3 15 1.872
D3 16 1.89
D3 17 1.908
D3 18 1.926
D3 19 1.944
D3 20 1.962
D3 21 1.98
D3 22 1.998
D3 23 2.016
D3 24 2.034
D4 1 0.666
D4 2 0.6734
D4 3 0.6808
D4 4 0.6882
D4 5 0.6956
D4 6 0.703
D4 7 0.7104
D4 8 0.7178
D4 9 0.7252
D4 10 0.7326
D4 11 0.74
D4 12 0.7474
D4 13 0.7548
D4 14 0.7622
D4 15 0.7696
D4 16 0.777
D4 17 0.7844
D4 18 0.7918
D4 19 0.7992
D4 20 0.8066
D4 21 0.814
D4 22 0.8214
D4 23 0.8288
D4 24 0.8362
D5 1 0.639
D5 2 0.6461
D5 3 0.6532
D5 4 0.6603
D5 5 0.6674
D5 6 0.6745
D5 7 0.6816
D5 8 0.6887
D5 9 0.6958
D5 10 0.7029
D5 11 0.71
D5 12 0.7171
D5 13 0.7242
D5 14 0.7313
D5 15 0.7384
D5 16 0.7455
D5 17 0.7526
D5 18 0.7597
D5 19 0.7668
D5 20 0.7739
D5 21 0.781
D5 22 0.7881
D5 23 0.7952
D5 24 0.8023
D6 1 1.224
D6 2 1.2376
D6 3 1.2512
D6 4 1.2648
D6 5 1.2784
D6 6 1.292
D6 7 1.3056
D6 8 1.3192
D6 9 1.3328
D6 10 1.3464
D6 11 1.36
D6 12 1.3736
D6 13 1.3872
D6 14 1.4008
D6 15 1.4144
D6 16 1.428
D6 17 1.4416
D6 18 1.4552
D6 19 1.4688
D6 20 1.4824
D6 21 1.496
D6 22 1.5096
D6 23 1.5232
D6 24 1.5368
D7 1 1.125
D7 2 1.1375
D7 3 1.15
D7 4 1.1625
D7 5 1.175
D7 6 1.1875
D7 7 1.2
D7 8 1.2125
D7 9 1.225
D7 10 1.2375
D7 11 1.25
D7 12 1.2625
D7 13 1.275
D7 14 1.2875
D7 15 1.3
D7 16 1.3125
D7 17 1.325
D7 18 1.3375
D7 19 1.35
D7 20 1.3625
D7 21 1.375
D7 22 1.3875
D7 23 1.4
D7 24 1.4125
D8 1 1.539
D8 2 1.5561
D8 3 1.5732
D8 4 1.5903
D8 5 1.6074
D8 6 1.6245
D8 7 1.6416
D8 8 1.6587
D8 9 1.6758
D8 10 1.6929
D8 11 1.71
D8 12 1.7271
D8 13 1.7442
D8 14 1.7613
D8 15 1.7784
D8 16 1.7955
D8 17 1.8126
D8 18 1.8297
D8 19 1.8468
D8 20 1.8639
D8 21 1.881
D8 22 1.8981
D8 23 1.9152
D8 24 1.9323
D9 1 1.575
D9 2 1.5925
D9 3 1.61
D9 4 1.6275
D9 5 1.645
D9 6 1.6625
D9 7 1.68
D9 8 1.6975
D9 9 1.715
D9 10 1.7325
D9 11 1.75
D9 12 1.7675
D9 13 1.785
D9 14 1.8025
D9 15 1.82
D9 16 1.8375
D9 17 1.855
D9 18 1.8725
D9 19 1.89
D9 20 1.9075
D9 21 1.925
D9 22 1.9425
D9 23 1.96
D9 24 1.9775
D10 1 1.755
D10 2 1.7745
D10 3 1.794
D10 4 1.8135
D10 5 1.833
D10 6 1.8525
D10 7 1.872
D10 8 1.8915
D10 9 1.911
D10 10 1.9305
D10 11 1.95
D10 12 1.9695
D10 13 1.989
D10 14 2.0085
D10 15 2.028
D10 16 2.0475
D10 17 2.067
D10 18 2.0865
D10 19 2.106
D10 20 2.1255
D10 21 2.145
D10 22 2.1645
D10 23 2.184
D10 24 2.2035
D13 1 2.385
D13 2 2.4115
D13 3 2.438
D13 4 2.4645
D13 5 2.491
D13 6 2.5175
D13 7 2.544
D13 8 2.5705
D13 9 2.597
D13 10 2.6235
D13 11 2.65
D13 12 2.6765
D13 13 2.703
D13 14 2.7295
D13 15 2.756
D13 16 2.7825
D13 17 2.809
D13 18 2.8355
D13 19 2.862
D13 20 2.8885
D13 21 2.915
D13 22 2.9415
D13 23 2.968
D13 24 2.9945
D14 1 1.746
D14 2 1.7654
D14 3 1.7848
D14 4 1.8042
D14 5 1.8236
D14 6 1.843
D14 7 1.8624
D14 8 1.8818
D14 9 1.9012
D14 10 1.9206
D14 11 1.94
D14 12 1.9594
D14 13 1.9788
D14 14 1.9982
D14 15 2.0176
D14 16 2.037
D14 17 2.0564
D14 18 2.0758
D14 19 2.0952
D14 20 2.1146
D14 21 2.134
D14 22 2.1534
D14 23 2.1728
D14 24 2.1922
D15 1 2.853
D15 2 2.8847
D15 3 2.9164
D15 4 2.9481
D15 5 2.9798
D15 6 3.0115
D15 7 3.0432
D15 8 3.0749
D15 9 3.1066
D15 10 3.1383
D15 11 3.17
D15 12 3.2017
D15 13 3.2334
D15 14 3.2651
D15 15 3.2968
D15 16 3.3285
D15 17 3.3602
D15 18 3.3919
D15 19 3.4236
D15 20 3.4553
D15 21 3.487
D15 22 3.5187
D15 23 3.5504
D15 24 3.5821
D16 1 0.9
D16 2 0.91
D16 3 0.92
D16 4 0.93
D16 5 0.94
D16 6 0.95
D16 7 0.96
D16 8 0.97
D16 9 0.98
D16 10 0.99
D16 11 1.0
D16 12 1.01
D16 13 1.02
D16 14 1.03
D16 15 1.04
D16 16 1.05
D16 17 1.06
D16 18 1.07
D16 19 1.08
D16 20 1.09
D16 21 1.1
D16 22 1.11
D16 23 1.12
D16 24 1.13
D18 1 2.997
D18 2 3.0303
D18 3 3.0636
D18 4 3.0969
D18 5 3.1302
D18 6 3.1635
D18 7 3.1968
D18 8 3.2301
D18 9 3.2634
D18 10 3.2967
D18 11 3.33
D18 12 3.3633
D18 13 3.3966
D18 14 3.4299
D18 15 3.4632
D18 16 3.4965
D18 17 3.5298
D18 18 3.5631
D18 19 3.5964
D18 20 3.6297
D18 21 3.663
D18 22 3.6963
D18 23 3.7296
D18 24 3.7629
D19 1 1.629
D19 2 1.6471
D19 3 1.6652
D19 4 1.6833
D19 5 1.7014
D19 6 1.7195
D19 7 1.7376
D19 8 1.7557
D19 9 1.7738
D19 10 1.7919
D19 11 1.81
D19 12 1.8281
D19 13 1.8462
D19 14 1.8643
D19 15 1.8824
D19 16 1.9005
D19 17 1.9186
D19 18 1.9367
D19 19 1.9548
D19 20 1.9729
D19 21 1.991
D19 22 2.0091
D19 23 2.0272
D19 24 2.0453
D20 1 1.152
D20 2 1.1648
D20 3 1.1776
D20 4 1.1904
D20 5 1.2032
D20 6 1.216
D20 7 1.2288
D20 8 1.2416
D20 9 1.2544
D20 10 1.2672
D20 11 1.28
D20 12 1.2928
D20 13 1.3056
D20 14 1.3184
D20 15 1.3312
D20 16 1.344
D20 17 1.3568
D20 18 1.3696
D20 19 1.3824
D20 20 1.3952
D20 21 1.408
D20 22 1.4208
D20 23 1.4336
D20 24 1.4464
;
param VOLL:=
D1 100000.0
D2 100000.0
D3 100000.0
D4 100000.0
D5 100000.0
D6 100000.0
D7 100000.0
D8 100000.0
D9 100000.0
D10 100000.0
D13 100000.0
D14 100000.0
D15 100000.0
D16 100000.0
D18 100000.0
D19 100000.0
D20 100000.0
;
param baseMVA:=
100
;
param PGmin:=
G1 0.0
G2 0.0
G3 0.0
G4 0.0
G5 0.0
G6 0.0
G7 0.0
G8 0.0
G9 0.0
G10 0.0
G11 0.0
G12 0.0
G13 0.0
G14 0.0
G15 0.0
G16 0.0
G17 0.0
G18 0.0
G19 0.0
G20 0.0
G21 0.0
G22 0.0
G23 0.0
G24 0.0
G25 0.0
G26 0.0
G27 0.0
G28 0.0
G29 0.0
G30 0.0
G31 0.0
G32 0.0
G33 0.0
;
param PGmax:=
G1 0.2
G2 0.2
G3 0.76
G4 0.76
G5 0.2
G6 0.2
G7 0.76
G8 0.76
G9 1.0
G10 1.0
G11 1.0
G12 1.97
G13 1.97
G14 1.97
G15 0.0
G16 0.12
G17 0.12
G18 0.12
G19 0.12
G20 0.12
G21 1.55
G22 1.55
G23 4.0
G24 4.0
G25 0.5
G26 0.5
G27 0.5
G28 0.5
G29 0.5
G30 0.5
G31 1.55
G32 1.55
G33 3.5
;
param RampUp:=
G1 0.0
G2 0.0
G3 0.0
G4 0.0
G5 0.0
G6 0.0
G7 0.0
G8 0.0
G9 0.0
G10 0.0
G11 0.0
G12 0.0
G13 0.0
G14 0.0
G15 0.0
G16 0.0
G17 0.0
G18 0.0
G19 0.0
G20 0.0
G21 0.0
G22 0.0
G23 0.0
G24 0.0
G25 0.0
G26 0.0
G27 0.0
G28 0.0
G29 0.0
G30 0.0
G31 0.0
G32 0.0
G33 0.0
;
param RampDown:=
G1 0.0
G2 0.0
G3 0.0
G4 0.0
G5 0.0
G6 0.0
G7 0.0
G8 0.0
G9 0.0
G10 0.0
G11 0.0
G12 0.0
G13 0.0
G14 0.0
G15 0.0
G16 0.0
G17 0.0
G18 0.0
G19 0.0
G20 0.0
G21 0.0
G22 0.0
G23 0.0
G24 0.0
G25 0.0
G26 0.0
G27 0.0
G28 0.0
G29 0.0
G30 0.0
G31 0.0
G32 0.0
G33 0.0
;
param c2:=
G1 0.0
G2 0.0
G3 0.014141999999999998
G4 0.014141999999999998
G5 0.0
G6 0.0
G7 0.014141999999999998
G8 0.014141999999999998
G9 0.052672000000000004
G10 0.052672000000000004
G11 0.052672000000000004
G12 0.00717
G13 0.00717
G14 0.00717
G15 0.0
G16 0.328412
G17 0.328412
G18 0.328412
G19 0.328412
G20 0.328412
G21 0.008342
G22 0.008342
G23 0.000213
G24 0.000213
G25 0.0
G26 0.0
G27 0.0
G28 0.0
G29 0.0
G30 0.0
G31 0.008342
G32 0.008342
G33 0.004895
;
param c1:=
G1 130.0
G2 130.0
G3 16.0811
G4 16.0811
G5 130.0
G6 130.0
G7 16.0811
G8 16.0811
G9 43.6615
G10 43.6615
G11 43.6615
G12 48.5804
G13 48.5804
G14 48.5804
G15 0.0
G16 56.56399999999999
G17 56.56399999999999
G18 56.56399999999999
G19 56.56399999999999
G20 56.56399999999999
G21 12.3883
G22 12.3883
G23 4.4231
G24 4.4231
G25 0.001
G26 0.001
G27 0.001
G28 0.001
G29 0.001
G30 0.001
G31 12.3883
G32 12.3883
G33 11.8495
;
param c0:=
G1 400.6849
G2 400.6849
G3 212.3076
G4 212.3076
G5 400.6849
G6 400.6849
G7 212.3076
G8 212.3076
G9 781.5210000000001
G10 781.5210000000001
G11 781.5210000000001
G12 832.7575
G13 832.7575
G14 832.7575
G15 0.0
G16 86.3852
G17 86.3852
G18 86.3852
G19 86.3852
G20 86.3852
G21 382.2391
G22 382.2391
G23 395.3749
G24 395.3749
G25 0.001
G26 0.001
G27 0.001
G28 0.001
G29 0.001
G30 0.001
G31 382.2391
G32 382.2391
G33 665.1094
;
param ChargeEff:=
Zoe101 0.87
Leaf203 0.87
i3423 0.87
Niro560 0.87
Model3956 0.87
;
param EVUB:=
Zoe101 30.0
Leaf203 30.0
i3423 30.0
Niro560 30.0
Model3956 30.0
;
param EVLB:=
Zoe101 0.0
Leaf203 0.0
i3423 0.0
Niro560 0.0
Model3956 0.0
;
